10	5
0	2	2	1
1	1	3
2	1	4
3	3	5	8	4
4	2	6	7
5	2	9	7
6	1	11
7	1	11
8	1	11
9	1	11
10	1	11
11	0
0	0	0	0	0	0	0
1	10	0	1	2	1	0
2	5	1	3	0	5	0
3	6	4	0	5	0	3
4	5	0	0	0	1	4
5	10	3	1	5	4	5
6	3	1	5	1	4	1
7	7	1	4	3	1	1
8	6	0	3	3	0	2
9	7	2	4	5	3	1
10	4	5	1	0	4	3
11	0	0	0	0	0	0
7	5	7	6	8
